p cnf 23 11
a 1 0
e 2 3 0
a 4 5 0
e 6 7 8 0
a 9 10 11 0
e 12 13 0
a 14 15 0
e 16 17 18 0
a 19 20 21 0
e 22 23 0
-9 -21 -10 15 0
11 5 1 -15 -8 0
-10 -15 -8 -5 0
-16 -4 21 0
14 -17 -12 18 0
22 -3 -18 0
-4 -20 -14 0
7 1 -19 12 14 0
-14 -11 -23 21 0
-15 -13 4 -12 0
-19 18 12 -17 8 0
